c instance by G2
c solution = 110000011101101101110
c Known solution cost is 1005 
p cnf 21 30
w 53 63 11 22 13 81 96 23 28 47 65 31 15 46 83 96 55 48 16 48 65
-15 11 10 0
-20 -21 14 0
4 -15 -5 0
7 15 -13 0
-16 2 6 0
-2 1 5 0
-4 3 -12 0
18 -17 1 0
-2 -11 6 0
7 -6 -2 0
-12 -14 -9 0
20 6 1 0
11 -6 3 0
-19 18 -6 0
-20 16 -1 0
-8 5 1 0
21 3 18 0
13 7 -9 0
3 -17 -19 0
5 -4 -15 0
12 -15 4 0
-10 8 -16 0
15 6 12 0
-3 -15 5 0
-20 17 2 0
20 -13 -15 0
-20 -7 5 0
-1 -19 9 0
10 -5 14 0
19 -20 7 0
